db/data/1945012357769419598217127982267225616.z3.out
sat
-------------------
31.075437302
